60
7
5
2
36 30
100 45
130 50
40 130
70 110
135 100
36 30
100 45
130 50
40 130
70 110
135 100
53 132
53 108
107 118
59 95
157 131
160 100
158 0
63 25
0 149
150 127
54 79
118 145
23 100
106 42
7 79
17 94
133 147
135 155
71 140
130 134
28 130
88 116
150 156
21 65
122 46
123 140
25 66
5 15
138 141
153 17
96 24
36 25
155 48
67 104
74 50
146 124
47 88
64 159
57 151
146 71
15 36
120 47
28 66
92 3
59 0
115 45
86 147
80 15
64 68
139 33
116 24
134 11
44 151
13 96
109 67
80 152
149 133
28 130
82 106
2 66
